Geographic Exponential Decay
20 102 148 45 288 18 25 150 49 131 279 96 132 228 40 262 6 52 152 310 255
p edge 320 321
e 0 282 23.0
e 1 45 37.0
e 1 0 1.0
e 2 225 5.0
e 2 1 5.0
e 3 69 1.0
e 3 2 1.0
e 4 170 1.0
e 4 3 2.0
e 5 197 6.0
e 5 4 1.0
e 6 174 75.0
e 6 194 15.0
e 6 77 71.0
e 6 78 9.0
e 6 126 93.0
e 6 5 43.0
e 7 160 1.0
e 7 6 97.0
e 8 240 22.0
e 8 172 6.0
e 8 7 1.0
e 9 112 3.0
e 9 8 23.0
e 10 145 2.0
e 10 9 3.0
e 11 315 4.0
e 11 10 1.0
e 12 93 5.0
e 12 11 1.0
e 13 258 5.0
e 13 12 7.0
e 14 289 1.0
e 14 13 11.0
e 15 82 4.0
e 15 14 5.0
e 16 211 1.0
e 16 15 8.0
e 17 272 1.0
e 17 16 4.0
e 18 263 78.0
e 18 244 30.0
e 18 122 54.0
e 18 259 36.0
e 18 181 50.0
e 18 17 82.0
e 19 113 1.0
e 19 18 27.0
e 20 68 3.0
e 20 19 4.0
e 21 92 1.0
e 21 20 5.0
e 22 103 11.0
e 22 21 10.0
e 23 116 13.0
e 23 206 10.0
e 23 22 10.0
e 24 135 8.0
e 24 23 12.0
e 25 239 35.0
e 25 40 35.0
e 25 97 11.0
e 25 37 4.0
e 25 28 37.0
e 25 24 42.0
e 26 228 67.0
e 26 25 17.0
e 27 49 60.0
e 27 26 2.0
e 29 246 3.0
e 29 27 2.0
e 30 45 15.0
e 31 179 11.0
e 31 29 5.0
e 32 275 1.0
e 32 31 3.0
e 33 34 2.0
e 33 32 1.0
e 35 143 2.0
e 35 33 1.0
e 36 231 12.0
e 36 35 1.0
e 38 271 5.0
e 38 36 3.0
e 39 268 1.0
e 39 38 5.0
e 40 297 100.0
e 40 41 47.0
e 40 123 63.0
e 40 279 74.0
e 42 226 3.0
e 42 39 2.0
e 43 266 4.0
e 43 42 5.0
e 44 45 82.0
e 45 198 11.0
e 45 84 75.0
e 46 230 1.0
e 46 43 5.0
e 47 136 2.0
e 47 46 1.0
e 48 253 3.0
e 48 47 1.0
e 49 264 97.0
e 49 127 48.0
e 49 292 9.0
e 49 212 2.0
e 50 66 4.0
e 50 48 10.0
e 51 52 86.0
e 51 50 1.0
e 52 298 67.0
e 52 316 95.0
e 52 232 8.0
e 52 215 98.0
e 53 282 23.0
e 54 214 2.0
e 54 51 3.0
e 55 241 2.0
e 55 54 1.0
e 56 227 6.0
e 56 55 4.0
e 57 58 5.0
e 57 56 1.0
e 59 105 8.0
e 59 57 9.0
e 60 139 2.0
e 60 59 10.0
e 61 62 3.0
e 61 60 3.0
e 63 312 2.0
e 63 61 1.0
e 64 252 7.0
e 64 63 6.0
e 65 86 1.0
e 65 64 1.0
e 67 233 2.0
e 67 65 1.0
e 70 71 1.0
e 70 67 5.0
e 72 121 1.0
e 72 70 5.0
e 73 109 2.0
e 73 72 1.0
e 74 131 95.0
e 74 73 1.0
e 75 213 1.0
e 75 74 6.0
e 76 79 23.0
e 76 87 14.0
e 76 75 15.0
e 80 81 1.0
e 80 76 24.0
e 83 157 9.0
e 83 80 1.0
e 85 88 1.0
e 85 83 2.0
e 89 175 5.0
e 89 85 2.0
e 90 91 4.0
e 90 89 1.0
e 94 95 2.0
e 94 199 8.0
e 94 90 18.0
e 96 128 26.0
e 96 229 43.0
e 96 294 7.0
e 96 216 21.0
e 96 255 21.0
e 98 99 1.0
e 98 94 16.0
e 100 265 3.0
e 100 98 3.0
e 101 147 2.0
e 101 100 2.0
e 102 200 46.0
e 102 242 42.0
e 102 104 49.0
e 102 110 36.0
e 102 290 63.0
e 106 188 20.0
e 107 269 1.0
e 107 101 2.0
e 108 111 19.0
e 108 107 1.0
e 111 313 8.0
e 114 195 1.0
e 114 108 1.0
e 115 219 1.0
e 115 114 1.0
e 117 283 1.0
e 117 115 1.0
e 118 260 1.0
e 118 117 12.0
e 119 120 4.0
e 119 118 10.0
e 123 124 20.0
e 125 129 16.0
e 125 130 12.0
e 130 131 39.0
e 130 132 81.0
e 131 132 96.0
e 131 177 3.0
e 131 267 76.0
e 132 133 82.0
e 132 134 68.0
e 132 311 4.0
e 137 189 2.0
e 137 119 1.0
e 138 180 4.0
e 138 137 1.0
e 140 223 1.0
e 140 138 1.0
e 141 142 1.0
e 141 140 1.0
e 144 287 3.0
e 144 141 1.0
e 146 310 37.0
e 148 149 88.0
e 148 150 80.0
e 148 151 82.0
e 148 243 16.0
e 148 245 17.0
e 148 144 15.0
e 149 262 15.0
e 150 152 49.0
e 150 153 55.0
e 150 281 77.0
e 150 154 2.0
e 152 261 44.0
e 152 171 43.0
e 152 155 95.0
e 152 156 44.0
e 158 299 5.0
e 158 148 82.0
e 159 217 8.0
e 159 158 4.0
e 161 162 3.0
e 161 159 1.0
e 163 164 2.0
e 163 161 2.0
e 165 166 2.0
e 165 163 1.0
e 167 301 2.0
e 167 165 2.0
e 168 169 1.0
e 168 167 9.0
e 173 178 1.0
e 173 168 12.0
e 176 179 7.0
e 182 183 1.0
e 182 173 4.0
e 184 185 2.0
e 184 182 3.0
e 186 187 2.0
e 186 270 8.0
e 186 184 4.0
e 188 228 89.0
e 190 286 8.0
e 190 186 20.0
e 191 192 6.0
e 191 190 5.0
e 193 196 9.0
e 193 191 2.0
e 201 202 3.0
e 201 193 1.0
e 203 204 4.0
e 203 288 70.0
e 204 205 21.0
e 207 208 12.0
e 207 304 2.0
e 207 201 17.0
e 209 210 3.0
e 209 207 20.0
e 218 251 3.0
e 218 209 1.0
e 220 276 1.0
e 220 218 6.0
e 221 222 5.0
e 221 220 1.0
e 224 227 2.0
e 228 234 63.0
e 228 235 71.0
e 228 236 85.0
e 237 238 1.0
e 237 221 1.0
e 247 248 2.0
e 247 237 1.0
e 249 250 2.0
e 249 247 1.0
e 254 255 50.0
e 255 256 57.0
e 255 273 67.0
e 255 288 78.0
e 257 262 97.0
e 262 274 39.0
e 262 277 62.0
e 262 278 53.0
e 279 288 49.0
e 279 280 9.0
e 279 284 25.0
e 279 285 60.0
e 280 288 67.0
e 288 290 40.0
e 291 292 47.0
e 292 293 14.0
e 295 296 3.0
e 295 249 1.0
e 296 300 16.0
e 302 303 3.0
e 302 295 1.0
e 305 306 9.0
e 305 302 2.0
e 307 308 1.0
e 307 305 6.0
e 309 310 46.0
e 310 313 41.0
e 310 314 2.0
e 310 317 76.0
e 318 319 1.0
e 318 307 2.0
